title                                   
1.0
        2.4680000000         0.0000000000         0.0000000000
        0.0000000000         4.2747013931         0.0000000000
        0.0000000000         0.0000000000        80.0000000000
    C   
    4  
Cartesian
     0.00000   1.42490   10.00000
     0.00000   0.00000   10.00000
     1.23400   2.13735   10.00000
     1.23400   3.56225   10.00000

